nbrTasks = 25;
nbrFixtures = 2;
nbrMachines = 2;
nbrTools = 2;
nbrCycles = 1;
name = ["Take PWB","Take LCD","Take SHIELD","Take LCD-SHIELD from fixture","Take ANTENNA","Take DCOVER","Take PWB-DCOVER-ANTENNA from fixture","Photo PWB","Photo LCD","Photo SHIELD","Put DCOVER in fixture","Put SHIELD in fixture","Tap DCOVER","Tap LCD-SHIELD","Tap PWB-DCOVER-ANTENNA","Tap SHIELD","Tap DCOVER-ANTENNA","Peel1 SHIELD","Peel2 SHIELD","Mount PWB on DCOVER-ANTENNA","Mount LCD on SHIELD","Mount ANTENNA on DCOVER","Blow air on PWB","Put PWB-DCOVER-ANTENNA in output","Put LCD-SHIELD in output","Start dummy1","Start dummy2","Goal dummy1","Goal dummy2"];

duration = [3,4,3,4,3,3,3,7,3,3,8,8,2,2,2,2,2,4,4,10,10,10,4,8,8,0,0,0,0];

identicalTasks = [{1},{2},{3},{4},{5},{6},{7},{8},{9},{10},{11},{12},{13},{14},{15},{16},{17},{18},{19},{20},{21},{22},{23},{24},{25}];

cycleNbr = [0,0,0,0,0,0,0,0,0,0,0,0,0,0,0,0,0,0,0,0,0,0,0,0,0];

% Trays
% 1: tray1
% 2: tray3
% 3: tray2
% 4: tray5
% 5: tray4
tray = [5,3,4,0,1,4,0,0,0,0,0,0,0,0,0,0,0,0,0,0,0,0,0,0,0];

% Outputs
% 1: output2
% 2: output1
out_put = [0,0,0,0,0,0,0,0,0,0,0,0,0,0,0,0,0,0,0,0,0,0,0,2,1];

% Fixtures
% 1: fixture2
% 2: fixture1
fixture = [0,0,0,1,0,0,2,0,0,0,2,1,2,1,2,1,2,1,1,0,1,2,0,0,0];

% Components
% 1: lcd-shield
% 2: dcover
% 3: pwb
% 4: dcover-antenna
% 5: lcd
% 6: shield
% 7: antenna
% 8: pwb-dcover-antenna
componentsUsed = [{3},{},{6},{1},{7},{2},{8},{3},{5},{6},{2},{6},{2},{1},{8},{6},{4},{6},{},{3,4},{6,5},{7,2},{3},{8},{1}];
nbrComponents = 8;

taskSubComponents = [{3},{},{6},{6,5},{7},{2},{4,3},{3},{5},{6},{2},{6},{2},{6,5},{4,3},{6},{2,7},{6},{},{3,2,7},{6,5},{7,2},{3},{4,3},{6,5}];
subComponents = [{6,5},{},{},{2,7},{},{},{},{4,3}];
taskCompleteSubComponents = [{},{},{},{5,6},{},{},{2,3,4,7},{},{},{},{},{},{},{5,6},{2,3,4,7},{},{2,7},{},{},{2,7},{},{},{},{2,3,4,7},{5,6}];

componentCreated = [0,0,0,0,0,0,0,0,0,0,0,0,0,0,0,0,0,0,0,8,1,4,0,0,0];

% putting a component
putting = {11,12,24,25};

% mounting a component
mounting = {20,21,22};

% taking a component
taking = {1,2,3,4,5,6,7};

% moving a component
moving = {};

% peeling a component
peeling = {18,19};

% photo a component
photo = {8,9,10};

% spraying a component
spraying = {23};

% tapping a component
tapping = {13,14,15,16,17};

concurrentTasks = [];
nbrConcurrentGroups = 0;

order = [||];
maxOrderedLength = 0;
orderedGroups = 0;

timeToTask = [|
0,1,1,1,1,1,2,1,1,2,2,1,2,1,2,1,2,1,1,2,1,2,2,1,1,0,0|
1,0,1,3,2,2,3,1,1,2,3,3,3,3,3,3,3,3,3,3,3,3,1,5,5,0,0|
1,2,0,1,2,1,2,1,1,2,2,1,2,1,2,1,2,1,1,2,1,2,2,1,1,0,0|
1,3,1,0,0,3,2,1,1,2,2,0,2,0,2,0,2,0,0,2,0,2,1,2,2,0,0|
1,2,1,2,0,3,2,1,1,2,2,2,2,2,2,2,2,2,2,2,2,2,2,4,4,0,0|
1,2,1,3,3,0,3,1,1,1,3,3,3,3,3,3,3,3,3,3,3,3,1,4,4,0,0|
1,3,1,1,2,3,0,1,1,2,0,1,0,1,0,1,0,1,1,0,1,0,2,1,1,0,0|
1,1,1,1,1,1,1,0,0,1,1,1,1,1,1,1,1,1,1,1,1,1,2,1,1,0,0|
1,1,1,1,1,1,1,1,1,1,1,1,1,1,1,1,1,1,1,1,1,1,2,1,1,0,0|
1,1,1,1,2,1,2,1,1,0,2,1,2,1,2,1,2,1,1,2,1,2,1,1,1,0,0|
1,3,1,1,2,3,0,1,1,2,0,1,0,1,0,1,0,1,1,0,1,0,2,1,1,0,0|
1,3,1,0,1,3,2,1,1,2,2,0,2,0,2,0,2,0,0,2,0,2,1,2,2,0,0|
1,3,1,1,2,3,0,1,1,2,0,1,0,1,0,1,0,1,1,0,1,0,2,1,1,0,0|
1,3,1,0,1,3,2,1,1,2,2,0,2,0,2,0,2,0,0,2,0,2,1,2,2,0,0|
1,3,1,1,2,3,0,1,1,2,0,1,0,1,0,1,0,1,1,0,1,0,2,1,1,0,0|
1,3,1,0,1,3,2,1,1,2,2,0,2,0,2,0,2,0,0,2,0,2,1,2,2,0,0|
1,3,1,1,2,3,0,1,1,2,0,1,0,1,0,1,0,1,1,0,1,0,2,1,1,0,0|
1,3,1,0,1,3,2,1,1,2,2,0,2,0,2,0,2,0,0,2,0,2,1,2,2,0,0|
1,3,1,0,1,3,2,1,1,2,2,0,2,0,2,0,2,0,0,2,0,2,1,2,2,0,0|
1,3,1,1,2,3,0,1,1,2,0,1,0,1,0,1,0,1,1,0,1,0,2,1,1,0,0|
1,3,1,0,1,3,2,1,1,2,2,0,2,0,2,0,2,0,0,2,0,2,1,2,2,0,0|
1,3,1,1,1,3,0,1,1,2,0,1,0,1,0,1,0,1,1,0,1,0,2,1,1,0,0|
1,1,1,1,2,1,2,2,2,2,2,1,2,1,2,1,2,1,1,2,1,2,0,1,1,0,0|
1,4,1,2,2,2,1,1,1,1,1,2,1,2,1,2,1,2,2,1,2,1,1,0,0,0,0|
1,4,1,2,2,2,1,1,1,1,1,2,1,2,1,2,1,2,2,1,2,1,1,0,0,0,0|
1,4,1,2,2,2,1,1,1,1,1,2,1,2,1,2,1,2,2,1,2,1,1,0,0,0,0|
1,4,1,2,2,2,1,1,1,1,1,2,1,2,1,2,1,2,2,1,2,1,1,0,0,0,0|];
timeToChange = [0,0,0,0,0,0,0,0,0,0,0,0,0,0,0,0,0,0,0,0,0,0,0,0,0,0,0];
timeFromChange = [0,0,0,0,0,0,0,0,0,0,0,0,0,0,0,0,0,0,0,0,0,0,0,0,0,0,0,0,0];
timeMatrix3D = array3d(1..27,1..25,1..2,[0,0,1,0,1,0,1,0,1,0,1,0,2,0,1,0,1,0,2,0,2,0,1,0,2,0,1,0,2,0,1,0,2,0,1,0,1,0,2,0,1,0,2,0,2,0,1,0,1,0,1,0,0,0,1,0,3,0,2,0,2,0,3,0,1,0,1,0,2,0,3,0,3,0,3,0,3,0,3,0,3,0,3,0,3,0,3,0,3,0,3,0,3,0,1,0,5,0,5,0,1,0,2,0,0,0,1,0,2,0,1,0,2,0,1,0,1,0,2,0,2,0,1,0,2,0,1,0,2,0,1,0,2,0,1,0,1,0,2,0,1,0,2,0,2,0,1,0,1,0,1,0,3,0,1,0,0,0,0,0,3,0,2,0,1,0,1,0,2,0,2,0,0,0,2,0,0,0,2,0,0,0,2,0,0,0,0,0,2,0,0,0,2,0,1,0,2,0,2,0,1,0,2,0,1,0,2,0,0,0,3,0,2,0,1,0,1,0,2,0,2,0,2,0,2,0,2,0,2,0,2,0,2,0,2,0,2,0,2,0,2,0,2,0,2,0,4,0,4,0,1,0,2,0,1,0,3,0,3,0,0,0,3,0,1,0,1,0,1,0,3,0,3,0,3,0,3,0,3,0,3,0,3,0,3,0,3,0,3,0,3,0,3,0,1,0,4,0,4,0,1,0,3,0,1,0,1,0,2,0,3,0,0,0,1,0,1,0,2,0,0,0,1,0,0,0,1,0,0,0,1,0,0,0,1,0,1,0,0,0,1,0,0,0,2,0,1,0,1,0,1,0,1,0,1,0,1,0,1,0,1,0,1,0,0,0,0,0,1,0,1,0,1,0,1,0,1,0,1,0,1,0,1,0,1,0,1,0,1,0,1,0,1,0,2,0,1,0,1,0,1,0,1,0,1,0,1,0,1,0,1,0,1,0,1,0,1,0,1,0,1,0,1,0,1,0,1,0,1,0,1,0,1,0,1,0,1,0,1,0,1,0,1,0,2,0,1,0,1,0,1,0,1,0,1,0,1,0,2,0,1,0,2,0,1,0,1,0,0,0,2,0,1,0,2,0,1,0,2,0,1,0,2,0,1,0,1,0,2,0,1,0,2,0,1,0,1,0,1,0,1,0,3,0,1,0,1,0,2,0,3,0,0,0,1,0,1,0,2,0,0,0,1,0,0,0,1,0,0,0,1,0,0,0,1,0,1,0,0,0,1,0,0,0,2,0,1,0,1,0,1,0,3,0,1,0,0,0,1,0,3,0,2,0,1,0,1,0,2,0,2,0,0,0,2,0,0,0,2,0,0,0,2,0,0,0,0,0,2,0,0,0,2,0,1,0,2,0,2,0,1,0,3,0,1,0,1,0,2,0,3,0,0,0,1,0,1,0,2,0,0,0,1,0,0,0,1,0,0,0,1,0,0,0,1,0,1,0,0,0,1,0,0,0,2,0,1,0,1,0,1,0,3,0,1,0,0,0,1,0,3,0,2,0,1,0,1,0,2,0,2,0,0,0,2,0,0,0,2,0,0,0,2,0,0,0,0,0,2,0,0,0,2,0,1,0,2,0,2,0,1,0,3,0,1,0,1,0,2,0,3,0,0,0,1,0,1,0,2,0,0,0,1,0,0,0,1,0,0,0,1,0,0,0,1,0,1,0,0,0,1,0,0,0,2,0,1,0,1,0,1,0,3,0,1,0,0,0,1,0,3,0,2,0,1,0,1,0,2,0,2,0,0,0,2,0,0,0,2,0,0,0,2,0,0,0,0,0,2,0,0,0,2,0,1,0,2,0,2,0,1,0,3,0,1,0,1,0,2,0,3,0,0,0,1,0,1,0,2,0,0,0,1,0,0,0,1,0,0,0,1,0,0,0,1,0,1,0,0,0,1,0,0,0,2,0,1,0,1,0,1,0,3,0,1,0,0,0,1,0,3,0,2,0,1,0,1,0,2,0,2,0,0,0,2,0,0,0,2,0,0,0,2,0,0,0,0,0,2,0,0,0,2,0,1,0,2,0,2,0,1,0,3,0,1,0,0,0,1,0,3,0,2,0,1,0,1,0,2,0,2,0,0,0,2,0,0,0,2,0,0,0,2,0,0,0,0,0,2,0,0,0,2,0,1,0,2,0,2,0,1,0,3,0,1,0,1,0,2,0,3,0,0,0,1,0,1,0,2,0,0,0,1,0,0,0,1,0,0,0,1,0,0,0,1,0,1,0,0,0,1,0,0,0,2,0,1,0,1,0,1,0,3,0,1,0,0,0,1,0,3,0,2,0,1,0,1,0,2,0,2,0,0,0,2,0,0,0,2,0,0,0,2,0,0,0,0,0,2,0,0,0,2,0,1,0,2,0,2,0,1,0,3,0,1,0,1,0,1,0,3,0,0,0,1,0,1,0,2,0,0,0,1,0,0,0,1,0,0,0,1,0,0,0,1,0,1,0,0,0,1,0,0,0,2,0,1,0,1,0,1,0,1,0,1,0,1,0,2,0,1,0,2,0,2,0,2,0,2,0,2,0,1,0,2,0,1,0,2,0,1,0,2,0,1,0,1,0,2,0,1,0,2,0,0,0,1,0,1,0,1,0,4,0,1,0,2,0,2,0,2,0,1,0,1,0,1,0,1,0,1,0,2,0,1,0,2,0,1,0,2,0,1,0,2,0,2,0,1,0,2,0,1,0,1,0,0,0,0,0,1,0,4,0,1,0,2,0,2,0,2,0,1,0,1,0,1,0,1,0,1,0,2,0,1,0,2,0,1,0,2,0,1,0,2,0,2,0,1,0,2,0,1,0,1,0,0,0,0,0,1,0,4,0,1,0,2,0,2,0,2,0,1,0,1,0,1,0,1,0,1,0,2,0,1,0,2,0,1,0,2,0,1,0,2,0,2,0,1,0,2,0,1,0,1,0,0,0,0,0,1,0,4,0,1,0,2,0,2,0,2,0,1,0,1,0,1,0,1,0,1,0,2,0,1,0,2,0,1,0,2,0,1,0,2,0,2,0,1,0,2,0,1,0,1,0,0,0,0,0,]);
timeMatrix3DDepth = 2;

% Tools
% 1: suction
% 2: grip
toolNeeded = [2,1,1,1,2,2,0,1,1,1,2,1,0,0,0,0,0,2,2,1,2,2,1,0,1,0,0];

changeToolDuration = [|0,0|
0,0|];
